memory 60 Gb

molecule protein_15 {
0 1
 N   17.407  27.054  -1.437
 C   17.227  26.751  -0.026
 C   18.555  26.446   0.653
 O   19.003  25.309   0.692
 C   16.258  25.572   0.084
 C   15.759  25.336   1.493
 O   16.399  25.780   2.453
 O   14.731  24.675   1.645
 H   17.860  26.421  -2.023
 H   16.724  27.595   0.500
 H   16.724  24.663  -0.337
 H   15.363  25.845  -0.519
 H   16.737  25.171   3.109
 H   16.947  27.858  -1.864
 H   19.060  27.284   1.155
}

set {
basis aug-cc-pvdz
scf_type df
guess sad
DF_SCF_TYPE SYMM_JK
}

energy('HF')
